Gurobi Optimizer version 9.1.2 build v9.1.2rc0 (linux64)
Thread count: 36 physical cores, 72 logical processors, using up to 32 threads
Optimize a model with 12 rows, 57 columns and 590 nonzeros
Model fingerprint: 0xf32eec78
Model has 47 quadratic constraints
Coefficient statistics:
  Matrix range     [2e-05, 3e+00]
  QMatrix range    [1e+00, 1e+00]
  QLMatrix range   [1e+00, 1e+00]
  Objective range  [8e-03, 7e-01]
  Bounds range     [1e+00, 1e+00]
  RHS range        [1e+00, 1e+00]
Presolve removed 9 rows and 0 columns

Continuous model is non-convex -- solving as a MIP.

Presolve removed 9 rows and 0 columns
Presolve time: 0.00s
Presolved: 189 rows, 57 columns, 443 nonzeros
Presolved model has 47 bilinear constraint(s)
Variable types: 57 continuous, 0 integer (0 binary)

Root relaxation: objective -1.743721e+00, 44 iterations, 0.00 seconds

    Nodes    |    Current Node    |     Objective Bounds      |     Work
 Expl Unexpl |  Obj  Depth IntInf | Incumbent    BestBd   Gap | It/Node Time

     0     0   -1.74372    0   38          -   -1.74372      -     -    0s
H    0     0                       0.6147548   -1.74372   384%     -    0s
     0     0   -1.64739    0    1    0.61475   -1.64739   368%     -    0s
H    0     0                      -1.6450460   -1.64739  0.14%     -    0s
     0     0     cutoff    0        -1.64505   -1.64505  0.00%     -    0s

Cutting planes:
  RLT: 25
  BQP: 3

Explored 1 nodes (76 simplex iterations) in 0.01 seconds
Thread count was 32 (of 72 available processors)

Solution count 2: -1.64505 0.614755 
No other solutions better than -1.64505

Optimal solution found (tolerance 1.00e-04)
Best objective -1.645045978473e+00, best bound -1.645045978473e+00, gap 0.0000%

User-callback calls 78, time in user-callback 0.00 sec
Gurobi Optimizer version 9.1.2 build v9.1.2rc0 (linux64)
Thread count: 36 physical cores, 72 logical processors, using up to 32 threads
Optimize a model with 60 rows, 300 columns and 15500 nonzeros
Model fingerprint: 0x78c87bc9
Model has 250 quadratic constraints
Coefficient statistics:
  Matrix range     [1e-06, 4e+00]
  QMatrix range    [1e+00, 1e+00]
  QLMatrix range   [1e+00, 1e+00]
  Objective range  [3e-04, 1e+00]
  Bounds range     [1e+00, 1e+00]
  RHS range        [1e+00, 1e+00]
Presolve removed 10 rows and 0 columns

Continuous model is non-convex -- solving as a MIP.

Presolve removed 10 rows and 0 columns
Presolve time: 0.01s
Presolved: 1050 rows, 300 columns, 14461 nonzeros
Presolved model has 250 bilinear constraint(s)
Variable types: 300 continuous, 0 integer (0 binary)

Root relaxation: objective -2.495897e+01, 442 iterations, 0.02 seconds

    Nodes    |    Current Node    |     Objective Bounds      |     Work
 Expl Unexpl |  Obj  Depth IntInf | Incumbent    BestBd   Gap | It/Node Time

     0     0  -24.95897    0  199          -  -24.95897      -     -    0s
     0     0  -22.51960    0  218          -  -22.51960      -     -    0s
     0     0  -21.90924    0  156          -  -21.90924      -     -    0s
     0     0  -21.88168    0  151          -  -21.88168      -     -    0s
     0     0  -21.82398    0  161          -  -21.82398      -     -    0s
     0     0  -21.82037    0  136          -  -21.82037      -     -    0s
     0     0  -21.81582    0  127          -  -21.81582      -     -    0s
     0     2  -21.81582    0  127          -  -21.81582      -     -    0s
* 2660  2033              60     -19.2563221  -20.14367  4.61%  57.6    2s
* 2662  2033              61     -19.2563222  -20.14367  4.61%  57.5    2s
* 6134   582              55     -19.2685734  -19.85363  3.04%  65.5    4s
  6293   543     cutoff   26       -19.26857  -19.85363  3.04%  65.6    5s
* 8538   755              65     -19.2707293  -19.85363  3.02%  65.5    5s
* 8616   755              65     -19.2816401  -19.85363  2.97%  65.4    5s
*11564   414              59     -19.2816491  -19.40907  0.66%  62.3    6s
*11567   414              59     -19.2816566  -19.40907  0.66%  62.3    6s
*11911   314              59     -19.2821990  -19.38665  0.54%  61.5    7s
*12475   335              62     -19.2826251  -19.34943  0.35%  60.1    7s
*12476   335              62     -19.2826313  -19.34943  0.35%  60.1    7s
*12481   335              62     -19.2826361  -19.34943  0.35%  60.1    7s
*12572   335              56     -19.2828125  -19.32827  0.24%  59.8    7s
*12574   335              57     -19.2828275  -19.32827  0.24%  59.8    7s
*12575   335              57     -19.2828276  -19.32827  0.24%  59.7    7s
*12579   335              57     -19.2828278  -19.32827  0.24%  59.7    7s
*12580   335              57     -19.2828279  -19.32827  0.24%  59.7    7s
*13174   648              56     -19.2828362  -19.31982  0.19%  57.8    7s
*13236   648              53     -19.2829039  -19.31056  0.14%  57.5    7s
*13241   648              54     -19.2829110  -19.31056  0.14%  57.5    7s
*13242   648              54     -19.2829114  -19.31056  0.14%  57.5    7s
*13267   648              61     -19.2829255  -19.30829  0.13%  57.4    7s
*13268   648              61     -19.2829591  -19.30829  0.13%  57.4    7s
*13292   648              58     -19.2837309  -19.30829  0.13%  57.3    7s
*13293   648              58     -19.2837508  -19.30829  0.13%  57.3    7s
*13759   648              57     -19.2837717  -19.30829  0.13%  55.6    7s
*13761   648              58     -19.2838441  -19.30829  0.13%  55.6    7s
*13762   648              58     -19.2838442  -19.30829  0.13%  55.6    7s
*13765   648              58     -19.2840970  -19.30829  0.13%  55.6    7s
*14073   648              59     -19.2843046  -19.30829  0.12%  54.6    7s
*14121   648              54     -19.2844653  -19.30829  0.12%  54.4    7s
*14375  1078              57     -19.2848204  -19.29704  0.06%  53.6    7s
*14377  1078              58     -19.2848257  -19.29704  0.06%  53.6    7s
*14379  1078              59     -19.2848258  -19.29704  0.06%  53.5    7s
*14646  1078              60     -19.2851362  -19.29593  0.06%  52.7    7s
*14648  1078              61     -19.2851417  -19.29593  0.06%  52.7    7s
*14893  1078              56     -19.2854552  -19.29593  0.05%  51.9    7s
*14968  1078              61     -19.2870953  -19.29593  0.05%  51.7    7s
*14971  1078              61     -19.2870965  -19.29593  0.05%  51.7    7s
*14981  1078              66     -19.2872415  -19.29593  0.05%  51.7    7s
*14982  1078              66     -19.2872424  -19.29593  0.05%  51.7    7s
*14983  1078              65     -19.2872493  -19.29593  0.04%  51.7    7s
*15126  1078              58     -19.2873211  -19.29593  0.04%  51.2    7s
*15128  1078              59     -19.2873411  -19.29593  0.04%  51.2    7s
*15135  1078              61     -19.2873485  -19.29593  0.04%  51.2    7s
*15559  1078              63     -19.2875185  -19.29593  0.04%  50.0    7s
*15562  1078              63     -19.2875195  -19.29593  0.04%  50.0    7s
*15564  1078              62     -19.2875301  -19.29593  0.04%  50.0    7s
*15565  1078              62     -19.2875301  -19.29593  0.04%  49.9    7s
*15689   632              62     -19.2878776  -19.29096  0.02%  49.6    7s
*15885   632              62     -19.2879019  -19.29031  0.01%  49.0    7s
*17014   477              59     -19.2879142  -19.28958  0.01%  45.9    7s
*17017   477              59     -19.2879424  -19.28958  0.01%  45.9    7s
*17077   477              65     -19.2879929  -19.28958  0.01%  45.8    7s
*17081   477              67     -19.2879966  -19.28958  0.01%  45.8    7s

Explored 18077 nodes (786163 simplex iterations) in 7.79 seconds
Thread count was 32 (of 72 available processors)

Solution count 10: -19.288 -19.2879 -19.2879 ... -19.2873

Optimal solution found (tolerance 1.00e-04)
Best objective -1.928799656359e+01, best bound -1.928957684314e+01, gap 0.0082%

User-callback calls 37206, time in user-callback 0.01 sec



objective value: -19.28799656358724
objective bound: -19.289576843138402
x_opt: [0.0, 1.0, 1.0, 0.0, 0.0, 0.0, 1.0, 1.0, 0.0, 0.0, 0.25303975099795095, 0.42175887368501197, 0.0, 1.0, 1.0, 1.0, 0.0, 1.0, 0.0, 0.0, 0.0, 1.0, 1.0, 1.0, 0.0, 1.0, 1.0, 1.0, 0.0, 0.9901075355557443, 1.0, 0.845002016843851, 0.0, 0.2144940351510042, 1.0, 1.0, 1.0, 1.0, 0.33562894202386245, 1.0, 0.8633792115740812, 0.2650854824756591, 1.0, 0.0, 0.0, 0.7694597945708247, 0.09460480865751475, 0.12353673644245128, 0.0, 1.0]
GUROBI solution time: 7.791818857192993

